c numero: 5
c nombre: n-20-d-0.3
c densidad: 0.3
p edges 20 61
e 1 2
e 1 12
e 1 13
e 1 14
e 1 16
e 2 3
e 2 4
e 2 7
e 2 8
e 2 9
e 2 12
e 2 15
e 2 19
e 3 7
e 3 10
e 3 11
e 3 12
e 3 14
e 3 16
e 3 17
e 3 20
e 4 14
e 4 15
e 4 17
e 4 19
e 5 7
e 5 13
e 5 14
e 5 17
e 5 19
e 6 8
e 6 10
e 6 12
e 6 18
e 6 19
e 7 8
e 7 10
e 7 20
e 8 12
e 9 15
e 9 18
e 9 19
e 9 20
e 10 14
e 10 17
e 10 19
e 11 12
e 11 13
e 11 14
e 11 17
e 12 13
e 12 14
e 12 18
e 13 17
e 14 16
e 14 17
e 14 19
e 14 20
e 15 20
e 16 20
e 19 20
